1 1 2 0
1 1 3 0
1 4 -2 0
1 5 -6 0
1 -5 -3 0
1 3 -7 0
1 8 9 0
1 8 -10 0
1 8 11 0
1 -8 -12 0
1 13 8 0
1 -13 -12 0
1 7 14 0
1 7 2 0
1 -6 -15 0
1 -6 -16 0
1 6 -5 0
1 -17 -18 0
1 -17 16 0
1 17 -2 0
1 -17 19 0
1 17 -20 0
1 21 6 0
1 21 -22 0
1 -15 23 0
1 -15 24 0
1 15 21 0
1 15 6 0
1 2 25 0
1 -2 26 0
1 2 -27 0
1 2 28 0
1 18 29 0
1 -18 9 0
1 -18 6 0
1 30 31 0
1 -30 20 0
1 32 15 0
1 32 -16 0
1 -33 31 0
1 -33 34 0
1 23 25 0
1 23 -20 0
1 -20 -33 0
1 16 -35 0
1 -16 33 0
1 16 6 0
1 19 -23 0
1 19 -31 0
1 19 -24 0
1 -19 -36 0
1 -31 37 0
1 31 24 0
1 -38 12 0
1 39 -40 0
1 39 10 0
1 41 42 0
1 -41 -43 0
1 41 44 0
1 41 -45 0
1 46 -43 0
1 40 -47 0
1 48 40 0
1 42 46 0
1 -42 49 0
1 -42 50 0
1 -44 51 0
1 -44 38 0
1 -52 48 0
1 -52 -22 0
1 -14 -43 0
1 -14 -8 0
1 -14 52 0
1 14 -13 0
1 -11 40 0
1 11 53 0
1 11 -48 0
1 11 -6 0
1 53 -17 0
1 -53 -43 0
1 53 8 0
1 -54 25 0
1 -54 9 0
1 -54 34 0
1 54 -27 0
1 -55 -56 0
1 55 -11 0
1 55 52 0
1 -43 -14 0
1 43 57 0
1 43 45 0
1 -43 49 0
1 45 -14 0
1 -45 58 0
1 27 9 0
1 -27 -2 0
1 -27 -59 0
1 9 54 0
1 9 -3 0
1 34 60 0
1 34 61 0
1 25 62 0
1 -25 61 0
1 63 -64 0
1 63 11 0
1 63 -59 0
1 -63 65 0
1 -63 28 0
1 -59 66 0
1 67 9 0
1 -67 68 0
1 -67 69 0
1 24 -2 0
1 -24 -21 0
1 -28 62 0
1 28 -19 0
1 -70 -26 0
1 -70 71 0
1 71 -72 0
1 -71 -31 0
1 -71 60 0
1 73 74 0
1 73 70 0
1 -73 24 0
1 73 -75 0
1 -73 71 0
1 62 37 0
1 -62 -76 0
1 -62 -75 0
1 -60 -77 0
1 -60 24 0
1 -60 78 0
1 60 -71 0
1 61 -64 0
1 61 70 0
1 -61 34 0
1 -61 -65 0
1 61 -28 0
1 37 -26 0
1 -37 19 0
1 37 75 0
1 -75 79 0
1 74 62 0
1 74 26 0
1 76 -29 0
1 -79 80 0
1 -79 -71 0
1 -72 70 0
1 72 -80 0
1 72 -75 0
1 26 81 0
1 29 82 0
1 -29 77 0
1 29 -83 0
1 -84 35 0
1 84 36 0
1 -85 -79 0
1 85 36 0
1 85 -86 0
1 86 35 0
1 86 74 0
1 86 -76 0
1 -35 -84 0
1 35 -87 0
1 36 -88 0
1 36 -89 0
1 -36 -80 0
1 -36 90 0
1 -91 89 0
1 92 -93 0
1 92 -38 0
1 94 95 0
1 96 -97 0
1 -98 99 0
1 -98 100 0
1 98 -93 0
1 101 98 0
1 -101 -51 0
1 101 96 0
1 -101 92 0
1 -95 98 0
1 93 -94 0
1 93 -102 0
1 93 92 0
1 103 104 0
1 103 -105 0
1 103 94 0
1 103 -102 0
1 -103 106 0
1 -50 101 0
1 -50 107 0
1 108 14 0
1 -108 -109 0
1 -108 105 0
1 108 -99 0
1 -108 -110 0
1 -51 -42 0
1 51 102 0
1 51 -110 0
1 -107 51 0
1 99 -57 0
1 -110 109 0
1 109 111 0
1 -49 -40 0
1 49 44 0
1 49 -27 0
1 47 42 0
1 47 -40 0
1 47 -99 0
1 47 44 0
1 57 -112 0
1 57 113 0
1 57 114 0
1 -57 -115 0
1 112 -25 0
1 -112 -43 0
1 -116 -117 0
1 116 -49 0
1 116 51 0
1 -114 112 0
1 114 118 0
1 114 57 0
1 -114 69 0
1 115 -111 0
1 115 119 0
1 113 112 0
1 113 -117 0
1 -113 111 0
1 113 -49 0
1 -68 -56 0
1 68 -43 0
1 -56 116 0
1 -118 120 0
1 118 69 0
1 -69 -116 0
1 -69 121 0
1 69 -122 0
1 69 -123 0
1 69 -120 0
1 -124 56 0
1 -124 -112 0
1 124 -40 0
1 -124 -125 0
1 -124 -120 0
1 124 69 0
1 -121 -68 0
1 -121 -126 0
1 -126 -56 0
1 -126 127 0
1 126 128 0
1 -64 117 0
1 -64 120 0
1 64 -58 0
1 -64 67 0
1 65 124 0
1 -65 122 0
1 -65 -123 0
1 65 129 0
1 65 130 0
1 131 -132 0
1 -133 122 0
1 133 -60 0
1 -133 128 0
1 -123 -134 0
1 -123 -54 0
1 -123 131 0
1 123 -133 0
1 123 -65 0
1 135 134 0
1 -135 -136 0
1 -122 43 0
1 122 -125 0
1 122 -64 0
1 122 118 0
1 122 137 0
1 -58 138 0
1 -58 -139 0
1 58 -118 0
1 58 140 0
1 77 84 0
1 -77 -123 0
1 77 -141 0
1 -77 -73 0
1 77 -66 0
1 81 -123 0
1 -81 -73 0
1 81 -26 0
1 134 -142 0
1 -83 -142 0
1 83 -143 0
1 83 66 0
1 -141 -63 0
1 141 144 0
1 -141 83 0
1 66 131 0
1 66 -145 0
1 66 146 0
1 66 83 0
1 66 147 0
1 -148 -138 0
1 -148 -145 0
1 148 137 0
1 -148 83 0
1 149 83 0
1 -149 -67 0
1 -150 -66 0
1 144 -91 0
1 144 143 0
1 144 -66 0
1 -144 -151 0
1 89 152 0
1 -89 -91 0
1 -89 -36 0
1 -146 -89 0
1 146 -141 0
1 146 -153 0
1 -146 151 0
1 -143 -150 0
1 -143 154 0
1 142 -88 0
1 -142 -150 0
1 -142 155 0
1 -78 -156 0
1 78 157 0
1 -78 145 0
1 78 -158 0
1 78 144 0
1 151 -159 0
1 151 78 0
1 151 -61 0
1 88 -160 0
1 87 -91 0
1 -87 -35 0
1 -161 162 0
1 161 -154 0
1 -161 163 0
1 154 82 0
1 -154 -164 0
1 -154 -143 0
1 -165 79 0
1 165 166 0
1 -165 167 0
1 -165 168 0
1 -160 87 0
1 163 -169 0
1 82 170 0
1 82 146 0
1 -82 167 0
1 -82 -161 0
1 168 171 0
1 -172 -162 0
1 -173 -164 0
1 -174 173 0
1 -174 172 0
1 162 175 0
1 162 35 0
1 -162 172 0
1 -162 161 0
1 90 -176 0
1 90 177 0
1 -164 -175 0
1 -164 -173 0
1 -164 -171 0
1 -164 176 0
1 -178 -179 0
1 -178 180 0
1 -97 179 0
1 97 -181 0
1 -97 182 0
1 100 -183 0
1 100 -98 0
1 -100 184 0
1 100 185 0
1 184 186 0
1 -184 178 0
1 184 -102 0
1 182 -178 0
1 182 -187 0
1 -182 106 0
1 -179 100 0
1 -179 -178 0
1 179 187 0
1 179 -188 0
1 181 -179 0
1 181 189 0
1 -181 -190 0
1 106 -184 0
1 106 182 0
1 -106 191 0
1 -105 103 0
1 -105 -185 0
1 102 -192 0
1 102 -51 0
1 -186 193 0
1 186 -194 0
1 186 -195 0
1 -186 -192 0
1 186 93 0
1 -196 197 0
1 -196 104 0
1 -196 186 0
1 196 -105 0
1 196 198 0
1 196 199 0
1 185 197 0
1 185 -104 0
1 185 -186 0
1 185 100 0
1 185 -106 0
1 200 -100 0
1 -200 201 0
1 183 -202 0
1 -183 -200 0
1 183 -203 0
1 204 -193 0
1 -204 109 0
1 204 -57 0
1 204 192 0
1 197 202 0
1 197 -205 0
1 -197 196 0
1 -197 -206 0
1 -192 -207 0
1 -192 119 0
1 208 -186 0
1 208 199 0
1 -195 -209 0
1 195 -210 0
1 -195 102 0
1 193 -186 0
1 -193 211 0
1 111 208 0
1 111 211 0
1 -212 56 0
1 -212 -205 0
1 213 -205 0
1 -213 -214 0
1 213 113 0
1 -213 -215 0
1 213 115 0
1 119 -205 0
1 119 -216 0
1 -217 218 0
1 217 204 0
1 217 219 0
1 217 130 0
1 -220 221 0
1 220 -204 0
1 220 -130 0
1 220 -119 0
1 -206 111 0
1 -206 -222 0
1 -206 207 0
1 -205 197 0
1 -205 223 0
1 -205 -218 0
1 -205 -224 0
1 -117 220 0
1 -117 225 0
1 -130 121 0
1 130 -117 0
1 130 207 0
1 -132 226 0
1 132 214 0
1 -132 131 0
1 -132 216 0
1 -132 215 0
1 132 128 0
1 132 -227 0
1 128 -226 0
1 -128 132 0
1 -128 216 0
1 227 228 0
1 -216 117 0
1 215 -229 0
1 -215 214 0
1 -215 -117 0
1 -215 -230 0
1 214 132 0
1 -214 -231 0
1 125 -77 0
1 -125 120 0
1 232 226 0
1 232 -216 0
1 -232 -120 0
1 -232 -233 0
1 139 229 0
1 -139 -234 0
1 139 -127 0
1 -139 140 0
1 -140 227 0
1 226 235 0
1 226 -138 0
1 -226 139 0
1 226 125 0
1 -226 132 0
1 -236 152 0
1 236 125 0
1 236 153 0
1 236 137 0
1 -236 232 0
1 -233 139 0
1 -233 -125 0
1 -234 -237 0
1 -234 125 0
1 -234 132 0
1 -234 -113 0
1 234 238 0
1 -234 -232 0
1 -234 128 0
1 -138 -150 0
1 -138 239 0
1 138 236 0
1 138 -58 0
1 138 149 0
1 137 -226 0
1 137 58 0
1 -152 -240 0
1 -152 148 0
1 -152 -236 0
1 -152 -241 0
1 152 242 0
1 153 226 0
1 -153 -239 0
1 -153 -243 0
1 153 236 0
1 153 -241 0
1 -153 -149 0
1 239 139 0
1 -239 145 0
1 239 -241 0
1 239 244 0
1 -241 152 0
1 241 -139 0
1 -241 245 0
1 241 244 0
1 -246 -121 0
1 246 139 0
1 -246 -247 0
1 -246 153 0
1 127 -126 0
1 156 237 0
1 156 -243 0
1 -156 -248 0
1 145 -156 0
1 145 -243 0
1 -145 241 0
1 -145 136 0
1 -145 66 0
1 244 -239 0
1 244 -249 0
1 157 -243 0
1 157 244 0
1 -157 250 0
1 157 -78 0
1 157 -242 0
1 -248 -251 0
1 248 -252 0
1 248 253 0
1 -136 -254 0
1 -136 -155 0
1 -136 -255 0
1 -136 253 0
1 -243 -242 0
1 242 -156 0
1 242 245 0
1 -242 -157 0
1 253 -168 0
1 -155 -248 0
1 -155 -250 0
1 -155 -151 0
1 256 -82 0
1 256 257 0
1 -256 -147 0
1 -251 258 0
1 251 259 0
1 251 256 0
1 251 147 0
1 -249 -256 0
1 -147 260 0
1 -147 167 0
1 -250 254 0
1 250 261 0
1 250 262 0
1 250 253 0
1 262 263 0
1 262 256 0
1 -167 -252 0
1 -264 -249 0
1 -264 -163 0
1 -260 169 0
1 260 166 0
1 -260 147 0
1 -265 164 0
1 265 249 0
1 265 166 0
1 265 -90 0
1 -259 -258 0
1 -259 -264 0
1 -259 266 0
1 -258 -259 0
1 158 -267 0
1 -158 -256 0
1 159 268 0
1 -159 -269 0
1 -159 -270 0
1 159 -265 0
1 -159 167 0
1 -176 258 0
1 176 -170 0
1 -176 271 0
1 -176 90 0
1 175 -270 0
1 175 174 0
1 -272 -273 0
1 -272 267 0
1 274 275 0
1 274 259 0
1 -274 166 0
1 -166 -276 0
1 273 274 0
1 273 -276 0
1 273 -277 0
1 273 -278 0
1 -169 170 0
1 -169 -272 0
1 170 -276 0
1 170 -279 0
1 170 280 0
1 -278 -281 0
1 -281 282 0
1 -277 -166 0
1 283 274 0
1 283 284 0
1 283 285 0
1 282 -278 0
1 282 -281 0
1 177 274 0
1 177 -276 0
1 -177 90 0
1 177 -285 0
1 177 -281 0
1 275 -274 0
1 275 -286 0
1 -275 -276 0
1 275 -278 0
1 -275 -272 0
1 287 288 0
1 287 -289 0
1 -180 -287 0
1 -180 290 0
1 291 -289 0
1 -292 293 0
1 292 -290 0
1 292 288 0
1 293 288 0
1 288 191 0
1 288 -291 0
1 289 -294 0
1 191 293 0
1 191 295 0
1 295 -296 0
1 -295 179 0
1 -295 297 0
1 -188 -181 0
1 188 -298 0
1 -188 299 0
1 -194 -296 0
1 -194 -300 0
1 194 298 0
1 194 188 0
1 301 187 0
1 -301 188 0
1 -301 191 0
1 -302 303 0
1 296 -303 0
1 -296 297 0
1 -297 -295 0
1 297 -292 0
1 187 -184 0
1 187 200 0
1 -187 -181 0
1 -304 301 0
1 -304 305 0
1 304 299 0
1 304 -182 0
1 -306 -305 0
1 -306 204 0
1 -306 298 0
1 202 -307 0
1 202 189 0
1 202 183 0
1 -300 -304 0
1 300 210 0
1 300 299 0
1 -299 209 0
1 -299 202 0
1 -299 -308 0
1 -299 -188 0
1 -299 -309 0
1 -305 -194 0
1 298 -310 0
1 -298 308 0
1 -298 306 0
1 -211 307 0
1 -211 -196 0
1 -211 311 0
1 -209 -211 0
1 -210 300 0
1 -210 307 0
1 210 198 0
1 -210 -195 0
1 -312 193 0
1 -312 -189 0
1 313 -314 0
1 314 -312 0
1 314 -209 0
1 -314 -202 0
1 -314 -315 0
1 -314 313 0
1 -314 -211 0
1 -314 316 0
1 -314 -224 0
1 -189 312 0
1 -189 -209 0
1 189 -307 0
1 -189 -210 0
1 -189 317 0
1 -225 208 0
1 -225 198 0
1 207 208 0
1 207 -198 0
1 318 -319 0
1 318 132 0
1 318 198 0
1 224 320 0
1 -224 321 0
1 -198 -218 0
1 198 -322 0
1 320 -323 0
1 -320 229 0
1 320 -318 0
1 -320 -185 0
1 -201 312 0
1 201 -318 0
1 -201 -200 0
1 201 316 0
1 201 -224 0
1 -203 324 0
1 203 207 0
1 -218 -205 0
1 218 -220 0
1 -218 -206 0
1 -219 -214 0
1 -229 -321 0
1 -229 214 0
1 -229 325 0
1 230 -229 0
1 -230 326 0
1 230 -327 0
1 -325 -318 0
1 -325 328 0
1 321 231 0
1 -326 -323 0
1 -326 329 0
1 -326 -224 0
1 319 330 0
1 -319 -331 0
1 319 224 0
1 332 323 0
1 332 -216 0
1 332 -215 0
1 231 221 0
1 -231 -216 0
1 231 -137 0
1 -231 -331 0
1 -231 -233 0
1 -240 -221 0
1 -240 222 0
1 240 -327 0
1 -240 233 0
1 333 222 0
1 327 -334 0
1 -327 335 0
1 221 -336 0
1 222 337 0
1 222 -332 0
1 222 338 0
1 -222 339 0
1 -223 332 0
1 -223 -205 0
1 -223 329 0
1 -223 -333 0
1 223 231 0
1 -223 -230 0
1 -237 156 0
1 -247 340 0
1 -247 127 0
1 247 -233 0
1 -341 221 0
1 341 -340 0
1 -335 -342 0
1 335 -246 0
1 -228 335 0
1 -228 -343 0
1 340 237 0
1 340 -216 0
1 340 -344 0
1 -345 215 0
1 -345 346 0
1 347 341 0
1 347 -237 0
1 347 -240 0
1 -347 -348 0
1 347 -345 0
1 347 -346 0
1 -245 -246 0
1 -257 -243 0
1 -349 238 0
1 -349 -242 0
1 349 -257 0
1 235 254 0
1 -350 -235 0
1 -350 -263 0
1 350 -245 0
1 -350 -335 0
1 342 351 0
1 342 352 0
1 238 353 0
1 -238 -352 0
1 -238 245 0
1 238 257 0
1 252 248 0
1 254 354 0
1 254 -262 0
1 355 235 0
1 355 354 0
1 263 -356 0
1 -263 357 0
1 -263 250 0
1 -263 -354 0
1 356 -254 0
1 -356 -354 0
1 356 252 0
1 356 257 0
1 -354 263 0
1 -354 -349 0
1 354 -267 0
1 -358 359 0
1 -358 -246 0
1 -358 263 0
1 358 254 0
1 -358 -257 0
1 -271 -159 0
1 271 250 0
1 271 249 0
1 -271 360 0
1 -271 -147 0
1 270 353 0
1 -270 361 0
1 -267 356 0
1 -267 272 0
1 267 362 0
1 267 363 0
1 -269 359 0
1 269 356 0
1 -269 361 0
1 -269 364 0
1 269 267 0
1 269 -354 0
1 361 -365 0
1 -361 -279 0
1 361 -267 0
1 -361 271 0
1 -361 -366 0
1 255 269 0
1 -255 267 0
1 -255 -355 0
1 255 -367 0
1 -357 368 0
1 357 269 0
1 357 369 0
1 -370 -263 0
1 -370 -267 0
1 -370 -366 0
1 279 -364 0
1 -279 -371 0
1 -372 169 0
1 -365 170 0
1 365 261 0
1 365 -363 0
1 -373 268 0
1 -373 364 0
1 -373 -266 0
1 -364 374 0
1 -364 -375 0
1 364 -363 0
1 363 -276 0
1 363 365 0
1 -363 279 0
1 363 376 0
1 261 372 0
1 -261 250 0
1 -261 377 0
1 -261 -267 0
1 -276 378 0
1 -276 -170 0
1 -276 -364 0
1 -276 266 0
1 280 -170 0
1 280 266 0
1 280 -363 0
1 286 379 0
1 -286 380 0
1 375 379 0
1 375 -286 0
1 375 364 0
1 266 -378 0
1 -378 286 0
1 -378 -375 0
1 -381 -286 0
1 381 276 0
1 381 375 0
1 -268 -382 0
1 -268 286 0
1 268 -383 0
1 -284 384 0
1 -284 266 0
1 284 -380 0
1 284 -385 0
1 284 -283 0
1 -385 283 0
1 386 -384 0
1 -386 -380 0
1 -384 -387 0
1 -384 386 0
1 -379 -388 0
1 -379 -284 0
1 -389 390 0
1 389 -391 0
1 -392 390 0
1 392 -393 0
1 -394 -391 0
1 -395 -391 0
1 395 394 0
1 393 -392 0
1 -393 -394 0
1 -390 -394 0
1 390 -386 0
1 390 393 0
1 311 -296 0
1 -311 305 0
1 311 396 0
1 -311 -302 0
1 311 -294 0
1 -303 296 0
1 -303 305 0
1 303 -294 0
1 397 396 0
1 397 -298 0
1 -310 -398 0
1 310 396 0
1 -310 -397 0
1 399 -397 0
1 -294 400 0
1 294 311 0
1 -396 -310 0
1 -396 -290 0
1 308 -307 0
1 -308 -401 0
1 -309 -399 0
1 309 402 0
1 -403 -404 0
1 -403 -405 0
1 -403 -406 0
1 -317 -398 0
1 404 -296 0
1 404 -407 0
1 -404 -309 0
1 -402 407 0
1 402 -309 0
1 315 398 0
1 -315 405 0
1 315 307 0
1 -315 401 0
1 -316 313 0
1 316 -189 0
1 -316 -408 0
1 316 203 0
1 -316 314 0
1 -324 -229 0
1 -324 -409 0
1 324 -410 0
1 324 -411 0
1 -411 -201 0
1 -411 -408 0
1 406 -412 0
1 406 -403 0
1 -406 410 0
1 -406 316 0
1 406 317 0
1 410 406 0
1 410 -324 0
1 410 299 0
1 410 -316 0
1 405 407 0
1 -405 324 0
1 408 -413 0
1 -408 -414 0
1 -408 324 0
1 -408 -298 0
1 408 -415 0
1 -408 -411 0
1 323 332 0
1 -323 -409 0
1 323 -331 0
1 -331 319 0
1 331 -416 0
1 -331 -201 0
1 -331 231 0
1 331 417 0
1 331 418 0
1 419 -420 0
1 -419 -413 0
1 -419 322 0
1 419 -418 0
1 421 -420 0
1 421 417 0
1 416 419 0
1 -416 324 0
1 416 -422 0
1 416 329 0
1 416 331 0
1 -409 -419 0
1 409 324 0
1 409 -423 0
1 409 -421 0
1 409 -411 0
1 -417 -424 0
1 -417 423 0
1 417 331 0
1 -425 416 0
1 425 -222 0
1 337 341 0
1 337 330 0
1 -337 416 0
1 337 -418 0
1 338 -426 0
1 338 -416 0
1 338 -335 0
1 -338 -427 0
1 338 428 0
1 338 322 0
1 322 425 0
1 -322 -429 0
1 -322 -430 0
1 -322 431 0
1 322 -346 0
1 420 -320 0
1 420 337 0
1 -420 432 0
1 -420 346 0
1 -427 -201 0
1 -427 421 0
1 427 433 0
1 434 -435 0
1 434 -436 0
1 -434 -437 0
1 434 -329 0
1 434 421 0
1 -434 431 0
1 -434 433 0
1 336 -347 0
1 334 347 0
1 334 -322 0
1 -334 -345 0
1 348 -438 0
1 -348 -349 0
1 -348 322 0
1 348 328 0
1 -348 -439 0
1 -328 -440 0
1 -328 352 0
1 -426 -441 0
1 426 -344 0
1 -426 346 0
1 442 -337 0
1 442 -443 0
1 -442 -326 0
1 442 -444 0
1 442 346 0
1 -330 337 0
1 -330 334 0
1 330 441 0
1 344 -347 0
1 344 339 0
1 -344 340 0
1 -344 -328 0
1 352 426 0
1 352 347 0
1 -352 438 0
1 352 344 0
1 -352 345 0
1 -445 238 0
1 -351 -446 0
1 -351 447 0
1 351 438 0
1 -351 -339 0
1 -351 448 0
1 439 449 0
1 -438 353 0
1 -438 352 0
1 -438 445 0
1 -339 -351 0
1 -339 222 0
1 339 -352 0
1 -339 447 0
1 339 344 0
1 447 449 0
1 447 -351 0
1 360 -438 0
1 -360 238 0
1 -353 -342 0
1 353 -350 0
1 -353 -450 0
1 -353 -439 0
1 -362 451 0
1 362 452 0
1 359 451 0
1 -359 -269 0
1 359 -453 0
1 -359 -452 0
1 359 450 0
1 359 -343 0
1 343 -454 0
1 -455 -445 0
1 448 456 0
1 -448 457 0
1 -448 458 0
1 448 360 0
1 448 459 0
1 -456 -353 0
1 456 -460 0
1 -456 461 0
1 -456 457 0
1 456 -360 0
1 462 -368 0
1 462 356 0
1 462 -455 0
1 462 -463 0
1 -368 451 0
1 -368 -356 0
1 368 354 0
1 -454 -451 0
1 -454 464 0
1 454 357 0
1 -454 -452 0
1 454 465 0
1 -454 466 0
1 -466 357 0
1 -466 -455 0
1 466 -452 0
1 -466 467 0
1 -466 -370 0
1 463 368 0
1 463 454 0
1 -463 -468 0
1 463 -362 0
1 451 -368 0
1 -451 -469 0
1 451 -452 0
1 -451 462 0
1 452 -461 0
1 -377 -361 0
1 377 -371 0
1 -366 261 0
1 366 -371 0
1 366 -459 0
1 470 -469 0
1 470 -467 0
1 470 471 0
1 472 -471 0
1 -472 -367 0
1 472 467 0
1 -472 473 0
1 464 454 0
1 464 474 0
1 465 -382 0
1 465 -475 0
1 -476 -358 0
1 476 477 0
1 476 478 0
1 -476 472 0
1 -467 476 0
1 467 479 0
1 467 -477 0
1 467 -377 0
1 467 454 0
1 467 480 0
1 -467 472 0
1 374 -464 0
1 481 268 0
1 -481 -471 0
1 481 464 0
1 481 374 0
1 481 381 0
1 382 -474 0
1 474 -464 0
1 474 482 0
1 -482 -470 0
1 482 -483 0
1 367 388 0
1 367 482 0
1 367 -383 0
1 -367 474 0
1 -369 484 0
1 369 -357 0
1 -369 -485 0
1 369 481 0
1 -369 -472 0
1 -471 474 0
1 -471 -481 0
1 383 268 0
1 -383 381 0
1 383 -380 0
1 388 -483 0
1 388 486 0
1 483 -388 0
1 483 487 0
1 488 -382 0
1 376 -488 0
1 376 -483 0
1 -376 383 0
1 487 483 0
1 -407 398 0
1 407 323 0
1 -407 -402 0
1 407 -401 0
1 415 -489 0
1 415 490 0
1 413 400 0
1 -413 -408 0
1 -491 489 0
1 491 -492 0
1 -491 405 0
1 491 -490 0
1 491 421 0
1 -489 412 0
1 489 428 0
1 490 -491 0
1 -400 493 0
1 400 -415 0
1 412 489 0
1 412 -406 0
1 423 -489 0
1 -423 -494 0
1 423 -490 0
1 -423 408 0
1 424 337 0
1 424 492 0
1 424 495 0
1 424 -414 0
1 -428 -492 0
1 428 409 0
1 494 -412 0
1 -494 398 0
1 -494 -496 0
1 -494 -428 0
1 -494 -423 0
1 497 -496 0
1 497 -491 0
1 497 498 0
1 -492 428 0
1 -492 -499 0
1 -492 -500 0
1 -499 -501 0
1 -499 491 0
1 435 -409 0
1 422 495 0
1 422 497 0
1 -433 -494 0
1 -433 -502 0
1 -433 -503 0
1 433 -504 0
1 -433 -505 0
1 433 346 0
1 -433 506 0
1 437 -505 0
1 -507 444 0
1 -504 507 0
1 504 410 0
1 495 435 0
1 495 -414 0
1 -414 495 0
1 -414 508 0
1 431 -427 0
1 431 -504 0
1 429 -502 0
1 -429 427 0
1 444 -504 0
1 446 -504 0
1 446 -444 0
1 502 429 0
1 -502 441 0
1 506 502 0
1 -506 444 0
1 506 -509 0
1 -503 429 0
1 -503 -510 0
1 503 -511 0
1 505 -512 0
1 -505 -503 0
1 441 -513 0
1 441 328 0
1 443 447 0
1 514 -502 0
1 514 440 0
1 -514 506 0
1 -515 516 0
1 515 517 0
1 515 -506 0
1 -430 432 0
1 -430 -443 0
1 -430 -518 0
1 430 -519 0
1 -432 -515 0
1 513 520 0
1 513 441 0
1 513 444 0
1 -513 519 0
1 -436 521 0
1 436 522 0
1 -458 432 0
1 458 456 0
1 -458 430 0
1 458 511 0
1 458 -523 0
1 -458 -339 0
1 -449 -521 0
1 449 -516 0
1 449 -458 0
1 -449 440 0
1 449 439 0
1 457 432 0
1 457 524 0
1 457 -430 0
1 457 525 0
1 526 -432 0
1 -526 527 0
1 -524 -526 0
1 524 449 0
1 -524 -426 0
1 524 528 0
1 -524 -473 0
1 524 -459 0
1 -523 516 0
1 -523 -529 0
1 516 530 0
1 -516 457 0
1 -461 -531 0
1 -461 -532 0
1 461 -343 0
1 459 -527 0
1 459 -531 0
1 459 -448 0
1 469 -533 0
1 -469 -470 0
1 469 -534 0
1 469 473 0
1 -469 535 0
1 -473 -524 0
1 473 -469 0
1 -473 -536 0
1 -473 -535 0
1 532 -473 0
1 -531 -526 0
1 -531 477 0
1 -531 -473 0
1 -531 -459 0
1 -525 537 0
1 525 -529 0
1 -525 -473 0
1 527 -538 0
1 527 -461 0
1 527 539 0
1 477 -476 0
1 -477 540 0
1 477 -541 0
1 477 463 0
1 477 532 0
1 478 -460 0
1 -478 463 0
1 -478 481 0
1 479 -533 0
1 -479 542 0
1 -479 -543 0
1 479 -460 0
1 479 -544 0
1 479 532 0
1 -480 479 0
1 480 -468 0
1 -480 532 0
1 533 541 0
1 533 -480 0
1 541 545 0
1 541 -479 0
1 -541 -478 0
1 535 546 0
1 -535 -480 0
1 535 -448 0
1 -460 -469 0
1 -460 -478 0
1 484 533 0
1 484 -543 0
1 484 547 0
1 -484 546 0
1 -484 -467 0
1 475 383 0
1 475 465 0
1 -545 533 0
1 -545 542 0
1 545 -543 0
1 -543 484 0
1 468 479 0
1 -542 451 0
1 542 -485 0
1 -542 -480 0
1 544 479 0
1 500 496 0
1 496 548 0
1 -496 -499 0
1 -496 -414 0
1 549 550 0
1 -549 -495 0
1 -508 -550 0
1 508 -551 0
1 -548 508 0
1 -548 -551 0
1 551 548 0
1 551 508 0
1 -551 -490 0
1 551 552 0
1 -551 549 0
1 553 400 0
1 -553 -554 0
1 555 -551 0
1 512 550 0
1 -512 495 0
1 -512 507 0
1 -512 -503 0
1 -512 -414 0
1 552 -550 0
1 -552 -556 0
1 552 505 0
1 517 -501 0
1 517 -557 0
1 -556 -511 0
1 556 -552 0
1 -556 498 0
1 556 -555 0
1 -498 517 0
1 498 -497 0
1 -498 558 0
1 -550 -512 0
1 550 508 0
1 501 -555 0
1 501 549 0
1 -511 -521 0
1 511 559 0
1 -521 503 0
1 521 513 0
1 -521 -557 0
1 -521 560 0
1 521 -506 0
1 -522 -559 0
1 522 498 0
1 -520 -561 0
1 -562 517 0
1 -562 -534 0
1 562 -518 0
1 -562 552 0
1 -560 -517 0
1 560 -563 0
1 -560 -564 0
1 -560 -511 0
1 560 -552 0
1 560 536 0
1 -559 520 0
1 -559 517 0
1 -559 -552 0
1 559 -557 0
1 557 565 0
1 -557 566 0
1 557 -567 0
1 -518 -513 0
1 518 -523 0
1 -518 560 0
1 519 -518 0
1 519 -510 0
1 -519 -430 0
1 -534 -568 0
1 -534 510 0
1 534 -569 0
1 536 -562 0
1 536 -510 0
1 -536 569 0
1 536 570 0
1 536 473 0
1 536 -571 0
1 -569 520 0
1 569 572 0
1 -569 540 0
1 569 -522 0
1 509 540 0
1 509 518 0
1 509 -539 0
1 -510 -572 0
1 510 -573 0
1 -510 522 0
1 510 -574 0
1 -510 -536 0
1 -561 -505 0
1 561 572 0
1 -561 563 0
1 561 -534 0
1 561 -575 0
1 540 -516 0
1 540 477 0
1 -540 -563 0
1 529 569 0
1 -529 -570 0
1 538 -479 0
1 538 528 0
1 -538 -576 0
1 539 -577 0
1 539 530 0
1 -539 -528 0
1 -539 -570 0
1 539 509 0
1 570 -538 0
1 -570 534 0
1 570 -529 0
1 568 432 0
1 -568 -578 0
1 568 546 0
1 568 579 0
1 -568 -529 0
1 -580 -577 0
1 580 -581 0
1 580 -538 0
1 580 -513 0
1 -580 -582 0
1 580 529 0
1 -577 -540 0
1 577 -580 0
1 -577 -529 0
1 546 484 0
1 -546 -527 0
1 -546 460 0
1 546 532 0
1 537 -528 0
1 537 -570 0
1 537 -525 0
1 -537 532 0
1 578 -570 0
1 578 535 0
1 -579 -485 0
1 579 535 0
1 583 -537 0
1 -528 -583 0
1 -576 -578 0
1 -530 538 0
1 566 -559 0
1 -566 -567 0
1 -567 -501 0
1 -565 559 0
1 -571 584 0
1 -571 585 0
1 -571 -558 0
1 -571 -557 0
1 -586 587 0
1 586 573 0
1 -586 563 0
1 -586 -566 0
1 -554 553 0
1 -588 -565 0
1 588 566 0
1 -588 -589 0
1 563 -587 0
1 563 584 0
1 -563 -559 0
1 563 562 0
1 -574 -510 0
1 -574 -529 0
1 573 584 0
1 573 538 0
1 573 -510 0
1 573 -585 0
1 573 558 0
1 575 -573 0
1 -575 590 0
1 -575 586 0
1 -575 -591 0
1 -592 581 0
1 -592 -574 0
1 592 -571 0
1 558 -573 0
1 558 -563 0
1 584 -573 0
1 -572 558 0
1 572 564 0
1 -593 -561 0
1 -581 578 0
1 581 592 0
1 -581 580 0
1 -582 580 0
1 -594 572 0
1 594 -573 0
1 -594 593 0
1 564 -572 0
1 564 -594 0
1 564 -560 0
1 590 -572 0
1 590 -593 0
1 591 572 0
1 591 575 0
